c Maximum weighted clique instances generated from exactcolors.
c cutoff: 8589934.
c A clique of value > scalef (8589934) defines an improving stable sets for coloring.
p edge 250 3228
e 1 3
e 1 6
e 1 18
e 1 23
e 1 39
e 1 43
e 1 55
e 1 72
e 1 79
e 1 83
e 1 90
e 1 94
e 1 123
e 1 130
e 1 155
e 1 156
e 1 163
e 1 174
e 1 181
e 1 218
e 1 225
e 1 230
e 1 231
e 2 26
e 2 34
e 2 36
e 2 39
e 2 40
e 2 48
e 2 53
e 2 68
e 2 73
e 2 75
e 2 96
e 2 110
e 2 131
e 2 138
e 2 141
e 2 145
e 2 147
e 2 148
e 2 166
e 2 169
e 2 171
e 2 193
e 2 205
e 2 208
e 2 225
e 2 226
e 2 230
e 2 249
e 3 7
e 3 11
e 3 17
e 3 20
e 3 29
e 3 30
e 3 39
e 3 42
e 3 56
e 3 65
e 3 69
e 3 70
e 3 73
e 3 78
e 3 84
e 3 87
e 3 88
e 3 95
e 3 98
e 3 101
e 3 108
e 3 118
e 3 124
e 3 131
e 3 144
e 3 145
e 3 152
e 3 154
e 3 165
e 3 174
e 3 178
e 3 184
e 3 186
e 3 192
e 3 223
e 3 225
e 3 226
e 3 238
e 3 244
e 3 246
e 3 248
e 4 11
e 4 17
e 4 27
e 4 30
e 4 40
e 4 51
e 4 53
e 4 74
e 4 92
e 4 97
e 4 98
e 4 99
e 4 100
e 4 108
e 4 121
e 4 122
e 4 128
e 4 132
e 4 137
e 4 148
e 4 167
e 4 178
e 4 189
e 4 223
e 4 224
e 4 228
e 4 247
e 5 8
e 5 9
e 5 16
e 5 20
e 5 32
e 5 38
e 5 48
e 5 54
e 5 58
e 5 70
e 5 72
e 5 74
e 5 76
e 5 79
e 5 86
e 5 89
e 5 114
e 5 117
e 5 118
e 5 119
e 5 120
e 5 134
e 5 146
e 5 152
e 5 158
e 5 162
e 5 176
e 5 194
e 5 216
e 5 229
e 5 234
e 6 19
e 6 25
e 6 29
e 6 39
e 6 48
e 6 67
e 6 88
e 6 94
e 6 106
e 6 118
e 6 126
e 6 133
e 6 134
e 6 137
e 6 138
e 6 142
e 6 147
e 6 150
e 6 151
e 6 157
e 6 159
e 6 170
e 6 184
e 6 193
e 6 209
e 6 210
e 6 217
e 6 223
e 6 229
e 6 230
e 6 231
e 6 232
e 7 13
e 7 50
e 7 58
e 7 65
e 7 81
e 7 86
e 7 87
e 7 95
e 7 100
e 7 106
e 7 109
e 7 112
e 7 124
e 7 132
e 7 157
e 7 170
e 7 171
e 7 175
e 7 178
e 7 180
e 7 182
e 7 184
e 7 195
e 7 210
e 7 211
e 7 213
e 7 220
e 7 242
e 7 244
e 7 246
e 7 248
e 7 250
e 8 13
e 8 17
e 8 32
e 8 48
e 8 49
e 8 73
e 8 77
e 8 80
e 8 92
e 8 102
e 8 136
e 8 138
e 8 149
e 8 155
e 8 171
e 8 172
e 8 188
e 8 196
e 8 204
e 8 206
e 8 209
e 8 224
e 8 230
e 8 244
e 9 21
e 9 22
e 9 24
e 9 54
e 9 60
e 9 68
e 9 84
e 9 87
e 9 102
e 9 109
e 9 114
e 9 116
e 9 129
e 9 136
e 9 137
e 9 140
e 9 151
e 9 153
e 9 160
e 9 164
e 9 167
e 9 174
e 9 183
e 9 201
e 9 211
e 9 214
e 9 219
e 9 228
e 9 233
e 9 235
e 9 237
e 9 239
e 9 242
e 10 15
e 10 18
e 10 35
e 10 43
e 10 45
e 10 46
e 10 51
e 10 96
e 10 127
e 10 130
e 10 143
e 10 152
e 10 155
e 10 158
e 10 161
e 10 204
e 10 208
e 10 218
e 10 225
e 10 244
e 11 35
e 11 41
e 11 46
e 11 49
e 11 53
e 11 65
e 11 103
e 11 121
e 11 129
e 11 137
e 11 157
e 11 160
e 11 167
e 11 177
e 11 186
e 11 187
e 11 193
e 11 202
e 11 214
e 11 216
e 11 217
e 11 225
e 11 228
e 11 244
e 11 247
e 12 20
e 12 25
e 12 29
e 12 31
e 12 48
e 12 51
e 12 63
e 12 75
e 12 86
e 12 88
e 12 97
e 12 126
e 12 129
e 12 138
e 12 152
e 12 159
e 12 163
e 12 174
e 12 179
e 12 196
e 12 216
e 12 224
e 12 228
e 12 230
e 12 237
e 13 19
e 13 28
e 13 38
e 13 68
e 13 76
e 13 78
e 13 79
e 13 80
e 13 84
e 13 86
e 13 93
e 13 109
e 13 117
e 13 127
e 13 139
e 13 153
e 13 156
e 13 160
e 13 161
e 13 162
e 13 172
e 13 179
e 13 190
e 13 221
e 13 236
e 13 237
e 13 250
e 14 59
e 14 66
e 14 74
e 14 75
e 14 94
e 14 97
e 14 98
e 14 99
e 14 118
e 14 131
e 14 135
e 14 167
e 14 172
e 14 180
e 14 182
e 14 184
e 14 186
e 14 188
e 14 210
e 14 223
e 14 229
e 15 18
e 15 46
e 15 49
e 15 54
e 15 86
e 15 97
e 15 99
e 15 130
e 15 141
e 15 142
e 15 143
e 15 177
e 15 178
e 15 179
e 15 194
e 15 196
e 15 210
e 15 213
e 15 214
e 15 225
e 15 232
e 15 243
e 16 17
e 16 38
e 16 49
e 16 55
e 16 60
e 16 76
e 16 79
e 16 83
e 16 98
e 16 99
e 16 105
e 16 109
e 16 112
e 16 145
e 16 150
e 16 152
e 16 182
e 16 186
e 16 194
e 16 199
e 16 200
e 16 220
e 16 222
e 16 227
e 16 239
e 17 22
e 17 43
e 17 45
e 17 47
e 17 50
e 17 69
e 17 91
e 17 92
e 17 121
e 17 136
e 17 143
e 17 148
e 17 157
e 17 179
e 17 191
e 17 206
e 17 225
e 17 233
e 17 248
e 18 40
e 18 41
e 18 42
e 18 55
e 18 74
e 18 104
e 18 106
e 18 144
e 18 146
e 18 166
e 18 172
e 18 175
e 18 185
e 18 191
e 18 197
e 18 208
e 18 209
e 18 226
e 18 241
e 18 243
e 19 22
e 19 46
e 19 47
e 19 54
e 19 61
e 19 62
e 19 66
e 19 67
e 19 72
e 19 73
e 19 76
e 19 101
e 19 124
e 19 133
e 19 141
e 19 142
e 19 144
e 19 146
e 19 161
e 19 162
e 19 163
e 19 166
e 19 183
e 19 186
e 19 194
e 19 197
e 19 218
e 20 22
e 20 28
e 20 29
e 20 30
e 20 31
e 20 49
e 20 51
e 20 56
e 20 75
e 20 85
e 20 91
e 20 99
e 20 106
e 20 121
e 20 125
e 20 127
e 20 130
e 20 148
e 20 166
e 20 175
e 20 183
e 20 201
e 20 235
e 20 241
e 20 244
e 21 33
e 21 34
e 21 37
e 21 48
e 21 54
e 21 59
e 21 60
e 21 67
e 21 105
e 21 121
e 21 125
e 21 139
e 21 149
e 21 150
e 21 151
e 21 152
e 21 159
e 21 165
e 21 174
e 21 176
e 21 185
e 21 191
e 21 215
e 21 237
e 22 30
e 22 46
e 22 47
e 22 62
e 22 103
e 22 104
e 22 105
e 22 121
e 22 122
e 22 133
e 22 136
e 22 144
e 22 148
e 22 158
e 22 159
e 22 165
e 22 168
e 22 171
e 22 177
e 22 200
e 22 212
e 22 227
e 22 231
e 23 43
e 23 47
e 23 56
e 23 60
e 23 73
e 23 103
e 23 114
e 23 124
e 23 145
e 23 168
e 23 175
e 23 185
e 23 201
e 23 207
e 23 210
e 23 235
e 23 243
e 24 43
e 24 46
e 24 67
e 24 108
e 24 114
e 24 115
e 24 134
e 24 143
e 24 160
e 24 163
e 24 178
e 24 204
e 24 206
e 24 208
e 24 236
e 24 239
e 24 245
e 25 33
e 25 36
e 25 44
e 25 51
e 25 64
e 25 67
e 25 73
e 25 87
e 25 89
e 25 92
e 25 93
e 25 95
e 25 100
e 25 122
e 25 133
e 25 155
e 25 156
e 25 161
e 25 171
e 25 176
e 25 182
e 25 188
e 25 194
e 25 199
e 25 212
e 25 228
e 25 234
e 25 242
e 26 48
e 26 57
e 26 58
e 26 64
e 26 79
e 26 81
e 26 84
e 26 96
e 26 100
e 26 105
e 26 116
e 26 131
e 26 142
e 26 153
e 26 199
e 26 215
e 26 220
e 26 244
e 26 247
e 27 46
e 27 49
e 27 72
e 27 76
e 27 78
e 27 87
e 27 91
e 27 99
e 27 112
e 27 119
e 27 120
e 27 122
e 27 130
e 27 133
e 27 163
e 27 174
e 27 176
e 27 187
e 27 194
e 27 199
e 27 204
e 27 207
e 27 212
e 27 213
e 27 220
e 27 245
e 27 250
e 28 48
e 28 78
e 28 88
e 28 101
e 28 108
e 28 115
e 28 123
e 28 135
e 28 145
e 28 152
e 28 157
e 28 167
e 28 172
e 28 179
e 28 192
e 28 194
e 28 199
e 28 201
e 28 203
e 28 218
e 28 238
e 29 30
e 29 39
e 29 51
e 29 57
e 29 65
e 29 74
e 29 75
e 29 98
e 29 116
e 29 127
e 29 133
e 29 138
e 29 140
e 29 145
e 29 149
e 29 170
e 29 172
e 29 174
e 29 184
e 29 193
e 29 230
e 30 33
e 30 34
e 30 40
e 30 51
e 30 55
e 30 59
e 30 74
e 30 81
e 30 130
e 30 139
e 30 157
e 30 176
e 30 177
e 30 196
e 30 213
e 30 215
e 30 222
e 30 223
e 30 225
e 31 44
e 31 53
e 31 60
e 31 73
e 31 77
e 31 94
e 31 95
e 31 134
e 31 163
e 31 167
e 31 169
e 31 178
e 31 184
e 31 190
e 31 192
e 31 197
e 31 200
e 31 204
e 31 213
e 31 220
e 31 225
e 31 228
e 31 237
e 31 248
e 32 75
e 32 76
e 32 78
e 32 84
e 32 94
e 32 97
e 32 131
e 32 138
e 32 141
e 32 153
e 32 169
e 32 172
e 32 195
e 32 204
e 32 219
e 32 233
e 32 242
e 32 247
e 33 43
e 33 45
e 33 50
e 33 60
e 33 64
e 33 68
e 33 69
e 33 77
e 33 78
e 33 83
e 33 103
e 33 120
e 33 126
e 33 129
e 33 135
e 33 158
e 33 195
e 33 204
e 33 209
e 33 210
e 33 218
e 33 221
e 33 237
e 33 240
e 34 41
e 34 56
e 34 60
e 34 69
e 34 72
e 34 82
e 34 84
e 34 86
e 34 93
e 34 98
e 34 99
e 34 117
e 34 125
e 34 153
e 34 156
e 34 170
e 34 184
e 34 186
e 34 202
e 34 211
e 34 219
e 34 230
e 34 233
e 34 235
e 34 236
e 35 44
e 35 48
e 35 56
e 35 57
e 35 61
e 35 77
e 35 83
e 35 104
e 35 106
e 35 113
e 35 139
e 35 140
e 35 146
e 35 169
e 35 185
e 35 188
e 35 190
e 35 192
e 35 209
e 35 214
e 35 232
e 35 234
e 35 239
e 35 250
e 36 55
e 36 90
e 36 92
e 36 117
e 36 121
e 36 138
e 36 146
e 36 152
e 36 154
e 36 164
e 36 184
e 36 204
e 36 219
e 36 223
e 36 230
e 36 242
e 36 245
e 37 42
e 37 52
e 37 58
e 37 61
e 37 75
e 37 103
e 37 105
e 37 106
e 37 111
e 37 127
e 37 135
e 37 147
e 37 164
e 37 167
e 37 172
e 37 181
e 37 203
e 37 210
e 37 215
e 37 217
e 37 219
e 37 245
e 38 53
e 38 57
e 38 73
e 38 87
e 38 90
e 38 91
e 38 95
e 38 96
e 38 136
e 38 165
e 38 177
e 38 199
e 38 212
e 38 217
e 38 218
e 38 229
e 38 237
e 38 250
e 39 40
e 39 44
e 39 52
e 39 58
e 39 70
e 39 71
e 39 76
e 39 87
e 39 94
e 39 113
e 39 131
e 39 135
e 39 136
e 39 147
e 39 148
e 39 152
e 39 164
e 39 172
e 39 182
e 39 186
e 39 211
e 39 227
e 39 231
e 39 232
e 39 234
e 39 238
e 39 249
e 40 45
e 40 50
e 40 51
e 40 53
e 40 56
e 40 60
e 40 61
e 40 75
e 40 79
e 40 99
e 40 113
e 40 136
e 40 148
e 40 156
e 40 158
e 40 162
e 40 163
e 40 166
e 40 186
e 40 189
e 40 198
e 40 211
e 40 235
e 40 237
e 40 249
e 41 55
e 41 60
e 41 62
e 41 70
e 41 80
e 41 106
e 41 107
e 41 121
e 41 125
e 41 137
e 41 141
e 41 142
e 41 147
e 41 157
e 41 158
e 41 163
e 41 165
e 41 168
e 41 174
e 41 181
e 41 200
e 41 201
e 41 214
e 41 215
e 41 225
e 41 235
e 41 238
e 41 242
e 41 245
e 41 250
e 42 47
e 42 53
e 42 63
e 42 72
e 42 78
e 42 79
e 42 85
e 42 91
e 42 94
e 42 104
e 42 131
e 42 142
e 42 171
e 42 175
e 42 176
e 42 184
e 42 185
e 42 189
e 42 193
e 42 201
e 42 230
e 42 235
e 42 248
e 43 46
e 43 50
e 43 53
e 43 65
e 43 73
e 43 82
e 43 86
e 43 109
e 43 145
e 43 147
e 43 157
e 43 163
e 43 183
e 43 190
e 43 230
e 43 234
e 44 50
e 44 66
e 44 67
e 44 68
e 44 76
e 44 84
e 44 86
e 44 88
e 44 93
e 44 105
e 44 108
e 44 113
e 44 147
e 44 162
e 44 164
e 44 179
e 44 181
e 44 195
e 44 196
e 44 204
e 44 206
e 44 211
e 44 225
e 44 234
e 44 237
e 44 243
e 44 247
e 44 248
e 45 50
e 45 52
e 45 72
e 45 79
e 45 92
e 45 93
e 45 101
e 45 107
e 45 113
e 45 131
e 45 143
e 45 167
e 45 169
e 45 171
e 45 175
e 45 180
e 45 193
e 45 196
e 45 215
e 45 231
e 45 233
e 45 243
e 46 86
e 46 97
e 46 99
e 46 124
e 46 130
e 46 156
e 46 158
e 46 161
e 46 181
e 46 200
e 46 232
e 46 235
e 46 246
e 47 67
e 47 83
e 47 84
e 47 88
e 47 94
e 47 102
e 47 124
e 47 145
e 47 152
e 47 157
e 47 159
e 47 165
e 47 176
e 47 190
e 47 194
e 47 202
e 47 205
e 47 227
e 47 238
e 47 243
e 47 244
e 47 249
e 48 79
e 48 102
e 48 105
e 48 114
e 48 124
e 48 137
e 48 143
e 48 173
e 48 180
e 48 181
e 48 189
e 48 190
e 48 198
e 48 200
e 48 217
e 48 219
e 48 220
e 48 222
e 48 226
e 48 229
e 48 232
e 48 234
e 48 235
e 49 76
e 49 79
e 49 81
e 49 97
e 49 120
e 49 131
e 49 132
e 49 133
e 49 153
e 49 154
e 49 158
e 49 168
e 49 193
e 49 194
e 49 204
e 49 206
e 49 211
e 49 220
e 49 221
e 49 224
e 49 229
e 49 230
e 50 57
e 50 61
e 50 63
e 50 70
e 50 71
e 50 91
e 50 93
e 50 135
e 50 148
e 50 153
e 50 157
e 50 173
e 50 177
e 50 184
e 50 186
e 50 199
e 50 210
e 50 223
e 50 233
e 50 240
e 51 63
e 51 64
e 51 70
e 51 82
e 51 96
e 51 98
e 51 101
e 51 103
e 51 121
e 51 123
e 51 134
e 51 148
e 51 149
e 51 152
e 51 158
e 51 161
e 51 176
e 51 184
e 51 189
e 51 203
e 51 209
e 51 221
e 51 223
e 51 247
e 51 249
e 52 60
e 52 64
e 52 70
e 52 97
e 52 120
e 52 121
e 52 130
e 52 136
e 52 137
e 52 138
e 52 153
e 52 164
e 52 168
e 52 177
e 52 205
e 52 213
e 52 217
e 52 231
e 52 240
e 52 241
e 53 61
e 53 91
e 53 116
e 53 127
e 53 142
e 53 158
e 53 176
e 53 214
e 53 223
e 53 240
e 53 244
e 53 245
e 53 246
e 54 87
e 54 94
e 54 103
e 54 104
e 54 130
e 54 141
e 54 152
e 54 159
e 54 201
e 54 217
e 54 220
e 54 233
e 55 103
e 55 114
e 55 116
e 55 127
e 55 136
e 55 139
e 55 163
e 55 181
e 55 188
e 55 190
e 55 198
e 55 204
e 55 209
e 55 212
e 55 220
e 55 230
e 56 74
e 56 79
e 56 83
e 56 107
e 56 133
e 56 146
e 56 169
e 56 189
e 56 203
e 56 207
e 56 213
e 56 219
e 56 236
e 56 243
e 56 245
e 57 71
e 57 94
e 57 96
e 57 101
e 57 105
e 57 111
e 57 149
e 57 154
e 57 164
e 57 165
e 57 169
e 57 173
e 57 179
e 57 202
e 57 215
e 57 225
e 57 230
e 57 233
e 57 234
e 57 242
e 58 66
e 58 68
e 58 77
e 58 78
e 58 81
e 58 115
e 58 120
e 58 127
e 58 134
e 58 136
e 58 149
e 58 151
e 58 158
e 58 161
e 58 169
e 58 173
e 58 175
e 58 188
e 58 197
e 58 208
e 58 209
e 58 216
e 58 219
e 58 223
e 58 237
e 58 239
e 59 92
e 59 94
e 59 98
e 59 99
e 59 125
e 59 135
e 59 141
e 59 157
e 59 168
e 59 178
e 59 181
e 59 186
e 59 190
e 59 192
e 59 199
e 59 221
e 59 243
e 60 71
e 60 77
e 60 82
e 60 96
e 60 112
e 60 116
e 60 122
e 60 123
e 60 139
e 60 144
e 60 145
e 60 146
e 60 147
e 60 171
e 60 172
e 60 174
e 60 175
e 60 177
e 60 196
e 60 207
e 60 211
e 60 212
e 60 213
e 60 224
e 60 227
e 61 69
e 61 79
e 61 87
e 61 97
e 61 109
e 61 112
e 61 123
e 61 129
e 61 152
e 61 158
e 61 177
e 61 209
e 61 215
e 61 223
e 61 240
e 61 250
e 62 71
e 62 74
e 62 77
e 62 79
e 62 117
e 62 127
e 62 128
e 62 160
e 62 164
e 62 179
e 62 187
e 62 196
e 62 203
e 62 208
e 62 221
e 62 222
e 63 67
e 63 70
e 63 72
e 63 87
e 63 98
e 63 104
e 63 110
e 63 111
e 63 131
e 63 133
e 63 134
e 63 135
e 63 139
e 63 158
e 63 160
e 63 166
e 63 181
e 63 188
e 63 191
e 63 194
e 63 200
e 63 209
e 63 221
e 63 227
e 63 237
e 64 67
e 64 68
e 64 74
e 64 81
e 64 82
e 64 93
e 64 97
e 64 101
e 64 102
e 64 105
e 64 112
e 64 114
e 64 128
e 64 132
e 64 133
e 64 136
e 64 145
e 64 160
e 64 167
e 64 183
e 64 191
e 64 209
e 64 216
e 64 219
e 64 222
e 64 239
e 65 66
e 65 67
e 65 97
e 65 108
e 65 140
e 65 144
e 65 148
e 65 150
e 65 168
e 65 169
e 65 170
e 65 171
e 65 200
e 65 216
e 65 234
e 65 246
e 66 85
e 66 113
e 66 122
e 66 126
e 66 143
e 66 147
e 66 156
e 66 162
e 66 171
e 66 177
e 66 182
e 66 183
e 66 184
e 66 195
e 66 218
e 66 219
e 66 224
e 67 69
e 67 75
e 67 82
e 67 101
e 67 103
e 67 107
e 67 116
e 67 119
e 67 120
e 67 125
e 67 140
e 67 164
e 67 166
e 67 170
e 67 189
e 67 198
e 67 211
e 67 224
e 67 235
e 67 239
e 67 247
e 68 70
e 68 72
e 68 80
e 68 85
e 68 92
e 68 126
e 68 147
e 68 148
e 68 155
e 68 169
e 68 177
e 68 188
e 68 206
e 68 234
e 68 236
e 68 250
e 69 82
e 69 83
e 69 88
e 69 92
e 69 101
e 69 105
e 69 109
e 69 120
e 69 126
e 69 130
e 69 142
e 69 147
e 69 154
e 69 209
e 69 214
e 69 215
e 69 221
e 69 223
e 69 228
e 69 238
e 69 241
e 69 242
e 69 247
e 70 78
e 70 84
e 70 104
e 70 121
e 70 132
e 70 136
e 70 149
e 70 152
e 70 159
e 70 182
e 70 188
e 70 196
e 70 206
e 70 211
e 70 216
e 70 219
e 70 224
e 70 226
e 70 227
e 70 249
e 71 87
e 71 91
e 71 105
e 71 113
e 71 114
e 71 120
e 71 124
e 71 135
e 71 150
e 71 171
e 71 178
e 71 180
e 71 181
e 71 185
e 71 190
e 71 193
e 71 199
e 71 200
e 71 202
e 71 213
e 71 216
e 71 219
e 71 227
e 71 228
e 71 230
e 72 82
e 72 92
e 72 108
e 72 110
e 72 112
e 72 119
e 72 126
e 72 128
e 72 129
e 72 130
e 72 145
e 72 147
e 72 174
e 72 192
e 72 215
e 72 229
e 73 82
e 73 93
e 73 94
e 73 99
e 73 106
e 73 114
e 73 128
e 73 144
e 73 184
e 73 185
e 73 189
e 73 209
e 73 229
e 73 230
e 74 75
e 74 76
e 74 78
e 74 84
e 74 88
e 74 94
e 74 114
e 74 129
e 74 145
e 74 146
e 74 153
e 74 157
e 74 162
e 74 164
e 74 186
e 74 200
e 74 214
e 74 226
e 74 241
e 74 242
e 75 78
e 75 79
e 75 80
e 75 96
e 75 117
e 75 118
e 75 123
e 75 124
e 75 141
e 75 142
e 75 148
e 75 156
e 75 170
e 75 173
e 75 176
e 75 192
e 75 222
e 75 224
e 75 227
e 75 241
e 76 81
e 76 93
e 76 94
e 76 162
e 76 167
e 76 178
e 76 202
e 76 205
e 76 249
e 77 83
e 77 112
e 77 129
e 77 136
e 77 150
e 77 170
e 77 176
e 77 182
e 77 194
e 77 195
e 77 203
e 77 229
e 77 246
e 78 91
e 78 96
e 78 98
e 78 99
e 78 114
e 78 121
e 78 122
e 78 132
e 78 143
e 78 147
e 78 150
e 78 153
e 78 154
e 78 155
e 78 169
e 78 171
e 78 174
e 78 201
e 78 212
e 78 230
e 78 234
e 79 87
e 79 92
e 79 98
e 79 105
e 79 139
e 79 147
e 79 165
e 79 170
e 79 187
e 79 202
e 79 210
e 79 234
e 79 235
e 79 243
e 80 85
e 80 101
e 80 102
e 80 114
e 80 115
e 80 126
e 80 144
e 80 196
e 80 201
e 80 214
e 80 218
e 80 226
e 80 235
e 81 94
e 81 95
e 81 106
e 81 109
e 81 115
e 81 116
e 81 121
e 81 134
e 81 137
e 81 151
e 81 156
e 81 168
e 81 170
e 81 193
e 81 195
e 81 196
e 81 197
e 81 199
e 81 200
e 81 205
e 81 211
e 81 214
e 81 222
e 81 229
e 81 235
e 81 241
e 82 84
e 82 100
e 82 102
e 82 103
e 82 133
e 82 157
e 82 158
e 82 159
e 82 161
e 82 164
e 82 169
e 82 213
e 82 227
e 83 88
e 83 100
e 83 118
e 83 134
e 83 136
e 83 142
e 83 153
e 83 158
e 83 160
e 83 161
e 83 166
e 83 183
e 83 187
e 83 188
e 83 191
e 83 195
e 83 196
e 83 208
e 83 215
e 83 216
e 83 223
e 83 225
e 83 226
e 83 228
e 83 235
e 84 86
e 84 96
e 84 105
e 84 115
e 84 127
e 84 129
e 84 131
e 84 144
e 84 154
e 84 159
e 84 162
e 84 181
e 84 183
e 84 190
e 84 192
e 84 193
e 84 209
e 84 219
e 84 231
e 84 233
e 84 239
e 85 94
e 85 102
e 85 107
e 85 108
e 85 116
e 85 130
e 85 133
e 85 135
e 85 145
e 85 146
e 85 155
e 85 185
e 85 191
e 85 192
e 85 197
e 85 206
e 85 212
e 85 224
e 86 97
e 86 101
e 86 112
e 86 114
e 86 116
e 86 137
e 86 150
e 86 161
e 86 166
e 86 168
e 86 186
e 86 198
e 86 225
e 86 238
e 86 244
e 87 94
e 87 96
e 87 101
e 87 110
e 87 115
e 87 119
e 87 121
e 87 129
e 87 141
e 87 146
e 87 156
e 87 179
e 87 180
e 87 183
e 87 193
e 87 194
e 87 197
e 87 200
e 87 203
e 87 208
e 87 233
e 87 237
e 87 244
e 87 245
e 88 93
e 88 96
e 88 112
e 88 121
e 88 124
e 88 130
e 88 131
e 88 151
e 88 154
e 88 161
e 88 162
e 88 163
e 88 172
e 88 177
e 88 179
e 88 181
e 88 182
e 88 195
e 88 196
e 88 200
e 88 203
e 88 208
e 88 223
e 88 226
e 88 238
e 88 239
e 89 93
e 89 101
e 89 110
e 89 133
e 89 137
e 89 154
e 89 155
e 89 159
e 89 166
e 89 174
e 89 193
e 89 195
e 89 209
e 89 212
e 89 235
e 89 236
e 90 147
e 90 155
e 90 161
e 90 167
e 90 196
e 90 201
e 90 205
e 90 209
e 90 213
e 90 214
e 90 223
e 90 224
e 90 225
e 90 230
e 90 245
e 91 98
e 91 100
e 91 117
e 91 118
e 91 141
e 91 142
e 91 151
e 91 155
e 91 164
e 91 167
e 91 174
e 91 186
e 91 192
e 91 195
e 92 94
e 92 102
e 92 106
e 92 111
e 92 126
e 92 132
e 92 140
e 92 148
e 92 180
e 92 183
e 92 196
e 92 202
e 92 209
e 92 231
e 93 96
e 93 105
e 93 120
e 93 136
e 93 149
e 93 170
e 93 185
e 93 190
e 93 199
e 93 203
e 93 217
e 93 236
e 93 240
e 93 241
e 94 95
e 94 97
e 94 111
e 94 116
e 94 157
e 94 162
e 94 167
e 94 168
e 94 178
e 94 181
e 94 187
e 94 194
e 94 196
e 94 199
e 94 205
e 94 212
e 94 238
e 94 246
e 95 96
e 95 104
e 95 108
e 95 109
e 95 112
e 95 118
e 95 122
e 95 123
e 95 130
e 95 150
e 95 153
e 95 159
e 95 160
e 95 162
e 95 169
e 95 173
e 95 174
e 95 179
e 95 189
e 95 226
e 95 244
e 96 106
e 96 110
e 96 132
e 96 142
e 96 169
e 96 180
e 96 190
e 96 196
e 96 202
e 96 207
e 96 215
e 96 222
e 96 247
e 96 248
e 97 109
e 97 110
e 97 112
e 97 122
e 97 206
e 97 211
e 97 220
e 97 222
e 97 224
e 97 227
e 98 131
e 98 152
e 98 153
e 98 158
e 98 159
e 98 169
e 98 176
e 98 185
e 98 194
e 98 203
e 98 213
e 98 219
e 98 231
e 98 240
e 98 241
e 98 248
e 99 102
e 99 105
e 99 109
e 99 113
e 99 116
e 99 118
e 99 131
e 99 132
e 99 140
e 99 175
e 99 195
e 99 211
e 99 233
e 99 246
e 100 104
e 100 174
e 100 195
e 100 196
e 100 236
e 100 239
e 100 243
e 100 250
e 101 125
e 101 127
e 101 144
e 101 159
e 101 184
e 101 195
e 101 198
e 101 199
e 101 218
e 101 233
e 101 244
e 101 246
e 102 106
e 102 119
e 102 127
e 102 129
e 102 141
e 102 143
e 102 166
e 102 168
e 102 177
e 102 188
e 102 202
e 102 228
e 102 229
e 102 234
e 102 236
e 102 243
e 102 247
e 103 113
e 103 122
e 103 134
e 103 147
e 103 181
e 103 195
e 103 199
e 103 202
e 103 213
e 103 218
e 103 228
e 104 110
e 104 111
e 104 132
e 104 146
e 104 154
e 104 156
e 104 170
e 104 171
e 104 175
e 104 176
e 104 180
e 104 203
e 104 206
e 104 209
e 104 215
e 104 219
e 104 228
e 104 230
e 104 236
e 104 245
e 105 118
e 105 120
e 105 142
e 105 160
e 105 173
e 105 175
e 105 185
e 105 200
e 105 221
e 105 227
e 105 231
e 105 233
e 105 240
e 105 245
e 105 246
e 105 249
e 106 113
e 106 123
e 106 124
e 106 126
e 106 132
e 106 141
e 106 143
e 106 144
e 106 148
e 106 153
e 106 158
e 106 160
e 106 181
e 106 184
e 106 225
e 106 226
e 106 227
e 106 229
e 106 230
e 106 234
e 106 246
e 107 112
e 107 113
e 107 116
e 107 129
e 107 147
e 107 148
e 107 171
e 107 172
e 107 182
e 107 199
e 107 202
e 107 205
e 107 211
e 107 221
e 107 238
e 108 122
e 108 126
e 108 151
e 108 152
e 108 153
e 108 166
e 108 188
e 108 200
e 108 201
e 108 210
e 108 215
e 108 223
e 108 238
e 109 110
e 109 131
e 109 145
e 109 175
e 109 177
e 109 190
e 109 191
e 109 202
e 109 225
e 109 244
e 109 248
e 110 119
e 110 120
e 110 145
e 110 150
e 110 152
e 110 160
e 110 174
e 110 179
e 110 186
e 110 192
e 110 193
e 110 203
e 110 215
e 110 227
e 110 228
e 110 235
e 110 237
e 111 114
e 111 124
e 111 126
e 111 130
e 111 150
e 111 151
e 111 159
e 111 176
e 111 178
e 111 181
e 111 184
e 111 188
e 111 205
e 111 214
e 111 221
e 111 230
e 111 241
e 111 248
e 111 249
e 112 114
e 112 123
e 112 146
e 112 163
e 112 170
e 112 186
e 112 192
e 112 198
e 112 200
e 112 201
e 112 211
e 112 222
e 112 250
e 113 118
e 113 150
e 113 154
e 113 161
e 113 166
e 113 178
e 113 188
e 113 210
e 113 225
e 113 234
e 113 247
e 114 121
e 114 124
e 114 135
e 114 148
e 114 158
e 114 163
e 114 168
e 114 169
e 114 175
e 114 177
e 114 182
e 114 193
e 114 214
e 114 222
e 114 229
e 114 230
e 114 234
e 114 250
e 115 123
e 115 131
e 115 139
e 115 144
e 115 154
e 115 162
e 115 169
e 115 180
e 115 194
e 115 197
e 115 212
e 115 222
e 115 229
e 115 236
e 116 134
e 116 138
e 116 141
e 116 144
e 116 163
e 116 170
e 116 176
e 116 178
e 116 196
e 116 203
e 116 213
e 116 215
e 116 235
e 116 240
e 116 244
e 117 119
e 117 130
e 117 133
e 117 136
e 117 141
e 117 154
e 117 155
e 117 162
e 117 171
e 117 189
e 117 195
e 117 203
e 117 212
e 117 220
e 117 225
e 117 227
e 117 231
e 117 234
e 117 244
e 117 245
e 117 248
e 118 130
e 118 139
e 118 143
e 118 147
e 118 165
e 118 167
e 118 169
e 118 170
e 118 175
e 118 178
e 118 199
e 118 211
e 118 225
e 118 238
e 118 242
e 118 246
e 118 248
e 118 250
e 119 122
e 119 127
e 119 131
e 119 143
e 119 161
e 119 165
e 119 166
e 119 171
e 119 189
e 119 191
e 119 192
e 119 205
e 119 210
e 119 217
e 119 220
e 119 247
e 120 125
e 120 126
e 120 130
e 120 139
e 120 142
e 120 168
e 120 172
e 120 179
e 120 186
e 120 187
e 120 193
e 120 215
e 120 234
e 120 242
e 121 133
e 121 141
e 121 178
e 121 187
e 121 189
e 121 199
e 121 200
e 121 218
e 121 238
e 121 247
e 122 132
e 122 133
e 122 135
e 122 136
e 122 175
e 122 177
e 122 194
e 122 195
e 122 210
e 123 128
e 123 132
e 123 142
e 123 158
e 123 166
e 123 175
e 123 182
e 123 187
e 123 219
e 123 220
e 123 225
e 123 245
e 124 125
e 124 168
e 124 196
e 124 200
e 124 207
e 124 213
e 124 214
e 124 246
e 125 135
e 125 136
e 125 148
e 125 153
e 125 180
e 125 182
e 125 190
e 125 193
e 125 194
e 125 198
e 125 226
e 125 229
e 126 131
e 126 151
e 126 160
e 126 163
e 126 171
e 126 175
e 126 206
e 126 207
e 126 209
e 126 241
e 127 133
e 127 142
e 127 149
e 127 152
e 127 170
e 127 172
e 127 179
e 127 189
e 127 205
e 127 228
e 127 232
e 127 240
e 127 241
e 128 129
e 128 131
e 128 149
e 128 155
e 128 158
e 128 161
e 128 166
e 128 168
e 128 170
e 128 184
e 128 191
e 128 204
e 128 220
e 128 239
e 128 246
e 129 149
e 129 153
e 129 155
e 129 158
e 129 168
e 129 181
e 129 184
e 129 185
e 129 201
e 129 208
e 129 218
e 129 224
e 129 242
e 129 244
e 130 131
e 130 135
e 130 138
e 130 150
e 130 152
e 130 153
e 130 195
e 130 200
e 130 204
e 130 217
e 130 238
e 130 239
e 130 247
e 130 250
e 131 132
e 131 136
e 131 139
e 131 146
e 131 172
e 131 184
e 131 217
e 131 222
e 131 224
e 131 238
e 131 244
e 131 249
e 132 156
e 132 157
e 132 164
e 132 180
e 132 196
e 132 203
e 132 205
e 132 222
e 132 248
e 133 145
e 133 148
e 133 181
e 133 183
e 133 199
e 133 203
e 133 213
e 133 227
e 133 250
e 134 141
e 134 149
e 134 169
e 134 171
e 134 178
e 134 191
e 134 195
e 134 196
e 134 197
e 134 200
e 134 208
e 134 220
e 134 247
e 135 138
e 135 142
e 135 152
e 135 156
e 135 188
e 135 197
e 135 202
e 135 220
e 136 140
e 136 145
e 136 162
e 136 171
e 136 175
e 136 189
e 136 209
e 136 223
e 136 230
e 136 238
e 136 239
e 136 243
e 137 142
e 137 156
e 137 181
e 137 203
e 137 218
e 137 238
e 138 141
e 138 148
e 138 150
e 138 152
e 138 163
e 138 166
e 138 184
e 138 190
e 138 196
e 138 206
e 138 228
e 138 236
e 138 241
e 138 249
e 138 250
e 139 146
e 139 151
e 139 154
e 139 194
e 139 195
e 139 202
e 139 209
e 139 213
e 139 227
e 139 229
e 139 242
e 139 246
e 139 249
e 140 143
e 140 145
e 140 150
e 140 151
e 140 160
e 140 170
e 140 192
e 140 197
e 140 204
e 140 217
e 140 227
e 140 228
e 141 145
e 141 147
e 141 149
e 141 169
e 141 181
e 141 209
e 141 215
e 141 217
e 142 153
e 142 159
e 142 176
e 142 180
e 142 182
e 142 187
e 142 188
e 142 189
e 142 190
e 142 203
e 142 208
e 142 209
e 142 211
e 142 215
e 142 218
e 142 221
e 142 245
e 143 158
e 143 165
e 143 169
e 143 172
e 143 184
e 143 185
e 143 188
e 143 198
e 143 214
e 143 218
e 143 234
e 143 235
e 143 243
e 143 244
e 143 247
e 144 146
e 144 151
e 144 154
e 144 157
e 144 183
e 144 224
e 144 233
e 144 235
e 144 249
e 145 162
e 145 178
e 145 182
e 145 196
e 145 204
e 145 205
e 145 218
e 145 220
e 145 232
e 145 233
e 145 235
e 145 236
e 145 243
e 146 152
e 146 156
e 146 164
e 146 166
e 146 172
e 146 176
e 146 196
e 146 204
e 146 218
e 146 228
e 146 233
e 147 152
e 147 155
e 147 160
e 147 165
e 147 190
e 147 192
e 147 204
e 147 208
e 147 212
e 147 220
e 147 223
e 147 240
e 148 149
e 148 185
e 148 192
e 148 200
e 148 202
e 148 203
e 148 217
e 148 235
e 148 245
e 148 248
e 149 156
e 149 176
e 149 186
e 149 202
e 149 204
e 149 207
e 149 222
e 149 230
e 149 233
e 149 234
e 149 237
e 149 239
e 150 161
e 150 164
e 150 171
e 150 175
e 150 182
e 150 187
e 150 198
e 150 202
e 150 219
e 150 226
e 150 229
e 150 246
e 151 154
e 151 158
e 151 162
e 151 182
e 151 186
e 151 189
e 151 194
e 151 243
e 151 245
e 152 155
e 152 172
e 152 173
e 152 176
e 152 178
e 152 184
e 152 201
e 152 204
e 152 207
e 152 217
e 152 220
e 153 154
e 153 155
e 153 163
e 153 174
e 153 193
e 153 227
e 154 161
e 154 174
e 154 180
e 154 184
e 154 202
e 154 203
e 154 204
e 154 205
e 154 223
e 154 226
e 155 169
e 155 187
e 155 193
e 155 194
e 155 215
e 155 218
e 155 219
e 155 244
e 156 167
e 156 171
e 156 184
e 156 194
e 156 206
e 156 210
e 156 224
e 156 227
e 156 235
e 156 237
e 157 171
e 157 178
e 157 179
e 157 187
e 157 191
e 157 212
e 157 218
e 157 239
e 157 247
e 158 182
e 158 186
e 158 206
e 158 216
e 158 218
e 158 235
e 158 241
e 159 176
e 159 196
e 159 200
e 159 217
e 159 230
e 159 235
e 159 245
e 160 178
e 160 184
e 160 185
e 160 186
e 160 200
e 160 214
e 160 216
e 160 217
e 160 226
e 160 233
e 160 234
e 160 248
e 161 169
e 161 178
e 161 181
e 161 184
e 161 195
e 161 223
e 161 227
e 161 246
e 161 249
e 162 188
e 162 227
e 162 229
e 162 236
e 162 238
e 162 242
e 163 175
e 163 179
e 163 180
e 163 185
e 163 203
e 163 205
e 163 207
e 163 208
e 163 211
e 163 216
e 163 219
e 163 220
e 164 184
e 164 189
e 164 190
e 164 202
e 164 211
e 164 235
e 164 245
e 165 174
e 165 188
e 165 215
e 165 216
e 165 221
e 165 229
e 165 234
e 165 247
e 166 176
e 166 177
e 166 184
e 166 187
e 166 189
e 166 191
e 166 192
e 166 209
e 166 231
e 166 234
e 166 245
e 166 247
e 166 250
e 167 194
e 167 202
e 167 211
e 167 218
e 167 219
e 167 235
e 167 238
e 167 247
e 168 174
e 168 182
e 168 185
e 168 207
e 168 220
e 168 224
e 168 230
e 168 239
e 168 245
e 169 173
e 169 175
e 169 196
e 169 212
e 169 232
e 169 237
e 170 173
e 170 175
e 170 185
e 170 187
e 170 191
e 170 198
e 170 205
e 170 231
e 171 181
e 171 192
e 171 197
e 171 206
e 171 210
e 171 223
e 171 232
e 171 240
e 171 247
e 172 178
e 172 185
e 172 198
e 172 210
e 172 215
e 172 235
e 173 184
e 173 207
e 173 209
e 173 229
e 173 243
e 174 186
e 174 204
e 174 242
e 175 188
e 175 189
e 175 195
e 175 197
e 175 208
e 175 217
e 175 221
e 175 250
e 176 188
e 176 193
e 176 198
e 176 199
e 176 219
e 176 221
e 176 223
e 177 189
e 177 190
e 177 199
e 177 203
e 177 214
e 177 220
e 177 222
e 177 229
e 178 183
e 178 191
e 178 198
e 178 202
e 179 185
e 179 197
e 179 236
e 179 238
e 179 239
e 180 186
e 180 188
e 180 189
e 180 200
e 180 217
e 180 220
e 181 186
e 181 188
e 181 201
e 181 208
e 181 221
e 181 226
e 181 230
e 181 235
e 181 242
e 182 186
e 182 212
e 182 220
e 182 233
e 182 247
e 183 187
e 183 199
e 183 212
e 183 224
e 183 226
e 183 242
e 183 249
e 184 217
e 184 226
e 184 232
e 184 236
e 184 239
e 185 186
e 185 204
e 185 249
e 186 189
e 186 194
e 186 198
e 186 199
e 186 208
e 186 222
e 186 238
e 186 242
e 186 247
e 187 188
e 187 192
e 187 226
e 187 232
e 187 240
e 187 244
e 187 250
e 188 198
e 188 214
e 188 218
e 188 224
e 188 228
e 188 243
e 188 248
e 189 206
e 189 233
e 189 246
e 189 247
e 189 249
e 190 197
e 190 205
e 190 208
e 190 211
e 190 219
e 190 230
e 191 205
e 191 210
e 191 231
e 191 232
e 191 244
e 191 250
e 192 201
e 192 202
e 192 209
e 192 219
e 192 237
e 192 239
e 192 240
e 192 249
e 193 200
e 193 204
e 193 207
e 193 222
e 193 224
e 193 229
e 193 242
e 193 249
e 194 196
e 194 206
e 194 210
e 194 218
e 194 237
e 195 201
e 195 204
e 195 207
e 195 209
e 195 235
e 195 249
e 196 198
e 196 226
e 196 229
e 196 230
e 196 240
e 196 241
e 196 242
e 197 200
e 197 203
e 197 210
e 197 211
e 197 212
e 197 213
e 197 214
e 197 218
e 197 221
e 197 227
e 198 205
e 198 206
e 198 243
e 198 249
e 199 200
e 199 214
e 199 215
e 199 223
e 199 230
e 200 201
e 200 210
e 200 211
e 200 213
e 200 217
e 200 222
e 200 241
e 200 246
e 201 203
e 201 216
e 201 239
e 202 206
e 202 218
e 202 228
e 202 238
e 203 205
e 203 235
e 204 208
e 204 210
e 204 222
e 204 235
e 205 232
e 205 233
e 205 234
e 205 249
e 205 250
e 206 209
e 206 210
e 206 216
e 206 235
e 206 247
e 207 220
e 207 225
e 207 247
e 207 250
e 208 215
e 208 221
e 208 223
e 208 230
e 208 240
e 208 247
e 208 249
e 209 213
e 209 218
e 209 227
e 209 232
e 210 228
e 210 241
e 210 248
e 211 224
e 211 229
e 211 235
e 211 237
e 211 238
e 211 239
e 212 229
e 212 237
e 212 243
e 212 245
e 213 221
e 214 225
e 214 229
e 214 242
e 214 249
e 215 235
e 215 250
e 216 237
e 216 238
e 216 243
e 218 230
e 218 238
e 218 245
e 219 236
e 219 239
e 219 242
e 219 248
e 219 249
e 220 225
e 220 241
e 220 244
e 220 250
e 221 230
e 221 232
e 221 234
e 221 237
e 221 244
e 222 228
e 222 230
e 222 231
e 222 238
e 222 241
e 222 243
e 223 229
e 223 245
e 224 233
e 224 234
e 225 237
e 225 244
e 226 231
e 226 237
e 227 245
e 227 247
e 227 249
e 228 236
e 228 240
e 229 232
e 229 238
e 229 242
e 230 235
e 230 239
e 230 249
e 231 242
e 231 244
e 231 245
e 232 237
e 232 238
e 232 239
e 232 243
e 232 250
e 233 244
e 233 247
e 234 249
e 234 250
e 235 238
e 235 241
e 236 239
e 237 240
e 237 246
e 238 248
e 239 240
e 239 249
e 241 244
e 242 248
e 243 250
e 247 248
n 1 2518421
n 2 2159979
n 3 1728864
n 4 2065853
n 5 1799906
n 6 2369352
n 7 1895701
n 8 2798633
n 9 1531378
n 10 3122342
n 11 1326403
n 12 1497434
n 13 2336025
n 14 2845357
n 15 2655625
n 16 2235870
n 17 1821875
n 18 2702209
n 19 2655625
n 20 2716012
n 21 2655625
n 22 2566442
n 23 1111297
n 24 4120150
n 25 2551521
n 26 2086747
n 27 2551521
n 28 853994
n 29 837577
n 30 3307479
n 31 2365399
n 32 2897688
n 33 2424544
n 34 2626685
n 35 2706285
n 36 2024426
n 37 3003838
n 38 3209599
n 39 79515
n 40 2174140
n 41 2298467
n 42 1649985
n 43 2636913
n 44 1592727
n 45 2317661
n 46 1719733
n 47 2925910
n 48 2024402
n 49 2880145
n 50 2042644
n 51 1042461
n 52 2596395
n 53 2409036
n 54 3054163
n 55 3312600
n 56 3074231
n 57 2282753
n 58 2282753
n 59 2280675
n 60 2886904
n 61 3171619
n 62 2893948
n 63 1620457
n 64 2412386
n 65 2377922
n 66 3332126
n 67 523523
n 68 3191367
n 69 2132723
n 70 3117891
n 71 3083387
n 72 1422558
n 73 2876677
n 74 2706285
n 75 2203237
n 76 1228930
n 77 2995168
n 78 2626685
n 79 2973931
n 80 3062469
n 81 982854
n 82 3076343
n 83 1237012
n 84 2229423
n 85 2336097
n 86 2587445
n 87 1596640
n 88 2256126
n 89 3017305
n 90 3191367
n 91 1895701
n 92 2649628
n 93 2819308
n 94 2285365
n 95 2282753
n 96 2241509
n 97 1627129
n 98 2945943
n 99 2945943
n 100 4761024
n 101 2692482
n 102 2728830
n 103 2893948
n 104 2282753
n 105 1504852
n 106 1592727
n 107 3773045
n 108 3285243
n 109 2518421
n 110 2880145
n 111 2650665
n 112 1670271
n 113 2499227
n 114 1627129
n 115 2534391
n 116 2480791
n 117 3074231
n 118 1551692
n 119 3016475
n 120 2706285
n 121 2551521
n 122 3021936
n 123 3748042
n 124 1619656
n 125 2845357
n 126 1326380
n 127 2692482
n 128 2722053
n 129 2692482
n 130 1092233
n 131 2798633
n 132 2845357
n 133 2893948
n 134 2534391
n 135 3463901
n 136 2796131
n 137 4196178
n 138 2812100
n 139 1969853
n 140 2776497
n 141 2880145
n 142 1772000
n 143 2045007
n 144 2834981
n 145 3017305
n 146 2809417
n 147 2518421
n 148 2052577
n 149 3175397
n 150 3007319
n 151 3964455
n 152 1221699
n 153 3017305
n 154 991137
n 155 2880145
n 156 2008047
n 157 2088500
n 158 835138
n 159 2880145
n 160 2505410
n 161 2995168
n 162 2369352
n 163 1832870
n 164 2989699
n 165 3097581
n 166 2119837
n 167 2714768
n 168 3003502
n 169 2518421
n 170 2597937
n 171 2499227
n 172 2893612
n 173 3788759
n 174 1516025
n 175 1954986
n 176 2758911
n 177 2235870
n 178 1935392
n 179 3003502
n 180 3094948
n 181 1138454
n 182 1986694
n 183 2551521
n 184 2412450
n 185 2893948
n 186 1803646
n 187 2722053
n 188 2280675
n 189 2499227
n 190 3434599
n 191 2368403
n 192 1270754
n 193 2692482
n 194 2433724
n 195 1933208
n 196 2591896
n 197 2789935
n 198 2528570
n 199 3144463
n 200 814957
n 201 3228996
n 202 1481410
n 203 2621754
n 204 2534391
n 205 2228531
n 206 1799906
n 207 2855477
n 208 1935392
n 209 2481201
n 210 2282753
n 211 1376373
n 212 3021106
n 213 2619641
n 214 2692482
n 215 1978923
n 216 3672136
n 217 2655625
n 218 2587445
n 219 1752591
n 220 1350063
n 221 3180357
n 222 2880145
n 223 1481081
n 224 2706285
n 225 2272580
n 226 2079345
n 227 2518421
n 228 2888172
n 229 2034451
n 230 1620457
n 231 3622644
n 232 2160862
n 233 2407752
n 234 1791693
n 235 2692482
n 236 1136426
n 237 2359227
n 238 1806309
n 239 2692482
n 240 3009278
n 241 3181438
n 242 3191165
n 243 1535421
n 244 1893058
n 245 1893058
n 246 2587445
n 247 430870
n 248 3503067
n 249 2874105
n 250 1832136
